
 102   30
  10   10   10   10   10   10   10   10   10   10   10   10   10   10   10   10   10   10   10   10   10   10   10   10   10   10   10   10   10   10

   0   0   0   0   0   0   0   0   0   0   0   0   0   0   0   0   0   0   0   0   0   0   0   0   0   0   0   0   0   0   0  29 2 3 4 5 6 7 8 9 10 11 12 13 14 15 16 17 18 19 20 21 22 24 27 31 32 34 36 40 42 
   5   0   0   0   0   0   0   0   0   0   0   0   0   0   0   0   0   0   0   0   0   0   0   0   0   0   0   0   0   0   0  15 101 64 57 53 51 48 47 43 41 38 37 35 26 25 23 
   5   0   0   3   0   0   0   0   0   0   1   0   0   0   0   0   0   0   0   0   0   0   1   0   0   0   0   0   0   0   0  18 101 99 98 96 92 74 67 64 63 57 53 52 51 50 49 47 38 25 
   6   0   0   0   0   0   0   0   0   0   0   0   0   0   0   0   0   0   0   0   0   0   0   0   0   4   0   0   0   1   0  21 101 98 97 96 94 77 74 70 69 66 64 63 62 56 55 50 47 46 44 39 35 
   2   0   0   0   0   0   0   0   0   0   0   0   0   0   0   1   0   0   0   0   0   0   0   0   0   0   1   0   0   0   1  18 100 76 74 71 70 69 68 67 65 64 60 59 55 51 48 41 35 33 
   2   0   0   0   0   0   0   0   0   0   0   2   0   0   0   0   2   0   0   0   0   0   0   0   0   0   0   2   0   0   0  21 101 97 94 93 92 78 74 69 68 67 66 64 62 60 59 55 54 53 50 45 33 
   7   0   0   0   0   0   0   1   0   0   0   0   0   0   0   0   0   0   0   0   0   0   0   0   0   0   0   0   0   0   0  11 99 78 71 69 63 53 51 46 41 29 28 
  10   0   0   0   0   0   0   0   0   0   0   5   0   0   0   0   0   0   0   0   0   0   0   0   0   0   0   0   0   0   0  16 101 97 94 91 76 70 68 67 64 62 60 57 51 45 35 33 
  10   0   0   0   0   0   0   0   0   0   0   0   0   0   0   3   0   0   0   0   0   1   0   0   1   0   0   0   0   4   0  22 101 100 99 98 97 96 93 78 76 74 71 69 68 67 66 64 60 57 55 48 45 37 
   2   0   0   0   0   0   0   0   0   0   0   0   0   0   0   6   0   0   0   0   0   0   0   0   0   0   0   0   0   5   0  15 94 93 92 91 74 70 69 65 64 60 53 51 45 39 33 
   2   1   0   0   0   0   0   4   0   0   0   0   0   4   0   0   0   0   1   0   0   4   0   0   0   0   0   0   0   0   0  15 100 99 96 95 94 78 77 63 55 54 52 51 50 46 29 
   9   0   0   3   2   0   0   0   0   0   0   6   1   0   0   0   0   0   0   0   0   0   0   0   0   0   0   0   0   0   0  12 97 76 71 69 63 61 60 51 46 43 41 30 
  10   0   0   0   0   0   0   0   0   0   0   0   5   0   0   0   0   3   0   0   0   0   0   0   0   0   0   0   0   0   5  19 98 97 96 91 77 76 74 71 70 68 67 64 63 62 61 58 52 51 35 
   3   9   0   0   3   1   0   0   0   0   0   0   0   0   0   0   0   0   0   0   0   0   8   0   0   3   8   0   0   0   0  14 97 92 89 78 76 71 70 66 64 59 58 55 46 30 
   4   0   0   6   0   0   0   0   1   0   3   0   0   0   0   0   0   0   0   0   0   0   0   3   0   0   0   0   0   0   0  14 101 98 96 94 77 74 67 65 64 63 57 44 38 35 
   9   0   0   0   0   0   3   0   0   0   0   3   0   5   0   0   0   0   0   0   1   0   0   0   0   0   0   0   1   0   6  17 100 99 98 97 95 78 67 62 61 60 58 55 54 52 46 43 41 
   4   0   0   0   0   0   0   7   0   0   0   0   8   0   0   0   0   0   0   0   0   0   0   0   0   0   0   0   0   0   0  14 95 94 93 92 75 74 69 68 67 62 57 55 53 33 
  10   0   0   0   3   0   0   0   0   0   0   0   0   0   0  10   0   0   0   0   8   0   0   5   0   0   0   0   0   0   0  16 101 98 97 96 94 90 78 75 66 63 56 52 47 45 44 43 
   6   0   1   0  10   0   6   0   0   0   0   5   0   0   0   0   0   0   0   0   0   0   0   0   0   0   0   0   0   5   0  21 99 98 97 96 92 91 77 76 75 74 71 70 69 68 67 64 63 61 58 52 51 
   4   0   0   0   0   0   0   0   0   0   0   0   0   0   0   0   0   0   0   0   0   0   0   0   5   0   0   0   0   0   0  19 101 99 98 97 96 95 93 91 74 73 72 67 66 64 62 60 58 56 53 
   2   0   0   0   0   0   4   0   0   0   0   0   5   0   4   0   0   0   0   0   0   0   0   5   0   0   0   0   0   0   0  19 101 100 99 96 95 94 93 92 91 74 69 64 63 62 61 58 53 52 47 
   3   0   0   0   0   0   0   7   0   5   0   0   0   0   0   7   0   0   0   0   3   6   0   0   0   0   0   0   0   0   0  16 96 95 93 92 90 77 73 69 65 64 63 58 55 54 47 38 
   3   0   0   0   7   0   0   0   0   0   0   0   7   0   0   0   0   0   0   0   0   0   0   0   0   0   0   0   0   0   0  18 100 99 98 96 94 93 92 91 90 87 77 74 69 66 63 62 60 50 
  10   0   0   0   0   0   0   0   0   0   0   0   0   0   0   6   3   0   0   0   0   0   0   0   0   0   4   0   0   0   0  15 101 96 95 94 86 76 72 69 67 66 64 62 58 48 43 
  10   0   0   0   0   0   0   0   0   0   5   0   0   0   0   0   0   0   6   0   0   0   0   0   0   0   0   0   6   8   0  20 100 95 94 93 91 89 85 78 77 76 75 73 72 71 69 68 66 65 58 56 
   2   0   0   0   0   8   0   0   0   0   0   0   0   0   0   0   0   0   0   0   0   0   0   0   0   0   0   0   0   0   0  16 100 98 95 94 93 92 89 87 73 68 67 63 60 59 55 46 
   8   0   0   0   0   0   0   0   0   0   0   0   0   0   0   0   0   0   0   0   8   0   3   0   0   0   0   0   0   0   6  12 101 99 93 90 75 74 70 66 65 53 47 37 
  10   0   0   0   0   0   0   0   0   0   0   0   0   0   0   0   0   2   7   0   0   0   5   0   0   0   0   0   0   0   0  19 97 96 95 94 93 91 90 89 88 87 74 73 72 66 65 64 61 60 54 
   2   0   8   0   0   0   0   0   0   0   0   0   0   0   0   5   0   0   0   0   0   0   0   0   3   0   0   6   0   0   0  12 97 89 76 73 70 68 67 66 65 64 61 43 
   4   0   0   0   5   0   0   0   0   4   0   0   0   0   0   0   0   0   0   1   0   0   0   3   0   0   7   0   0   5   9  16 101 100 98 96 95 94 93 91 87 77 74 73 72 68 67 65 
   8   0   0   0   0   0   0   0   0   0   0   0   0   0   0   0   0   0   0   0   4   0   0   9   0   4   0   0   0   0   0  14 101 95 94 92 89 87 83 77 74 73 69 65 61 58 
  10   0   0   0   0   0   0   0   6   0   0   0   0   0   0   0   0   0   0   4   0   0   0   0   6   0   0   0   0   0   0  14 96 93 92 91 90 88 87 76 75 73 72 68 64 61 
   8   6   0   0   0   0   0   0   0   6   4   0   2   0   0   0   0   0   0   0   0   0   0   0   0   0   0   0   0   0   0  12 98 96 90 89 87 85 77 73 72 63 58 56 
   3   4   7   0   0   0   0   0   0   0   0   0   0   0   0   0   0   0   0   5   0   0   0   0   4   0   0   0   0   4   0  11 101 97 91 89 88 81 80 74 67 63 54 
   7   0   0   0   0   0   2   0   4   0   0   0   0   0   0   0   0   0   0   0   0   6   0   0   6   0   0   0   0   0   0  15 99 95 93 92 90 89 86 85 83 81 79 78 75 73 72 
   4   8   0   0   0   0   0   0   0   0   0   0   4   0   0   7   0  10   0   0   8   0   0   7   0   0   0   7   0   0   2  12 97 94 88 86 84 83 80 79 74 72 69 67 
   7   0   0   0   0   0   0   4   0   0   0   0   0   0   0   0   0   0   0   0   0   0   0   0   7   0   0   0   9   0   0  10 94 92 91 87 85 81 79 73 72 63 
   5   0   0   0   0   0   0   0   9   0   7   0   5   0   0   0   0   0   0   0   0   0   9   0   6   0   7   4   0   0   0  10 100 97 88 86 85 84 83 72 70 66 
   7   0   7   0   0   0   0   0   0   0  10   0   0   5   0   0   3   0   0   0   0   0   0   0   0   0   0   0   0   0   7   9 100 99 95 87 84 82 80 68 67 
   4   0   0   0   0   0   0   5   0   4   0   0   0   0   0   5   0   5   0   0   0   0   0   5   7   0   0   0   9   0   0   9 97 92 89 86 80 76 74 72 67 
   3   9   0   0   0   0   0   0   7   0   0   0   5   0   0   0   0   0   0   0   0   0   0   0   0   0   0   0   0   0   0   9 94 93 90 89 85 81 77 75 72 
   9   0   8   0   0   0   0   0   0   0   0   0   0   0   0   0  10   0  10   7  10   3   0   0   0   0   0   0   0   0   0   7 96 85 84 83 72 71 66 
   4   0   0   0   0   0   0   0   0   0   0   0   0   0   0   0   0   0  10   0   0   0   0   0   8   0   0   0   0   0   0   9 93 92 91 88 87 84 83 81 74 
   1   7   0   0   0   0   0   0   0   0   0   0   4   0   0   0   0   0   0   0   5   0   0   0   7   0   0   0   0   0   0   9 92 89 88 86 84 83 82 81 76 
   9   3   0   0   0   0   0   0   0   0   9   0   0   0   0   0   0   7   0   0   0   0   0   0   0   5   7   0   0   0  10   8 95 89 87 84 82 80 79 77 
   9   0   0   0   0   0   0   0   0   0   0   0   0   0   0   0   8   0   0   0   0   0   6   0   0   8   0   0   0   0   0   6 90 88 85 81 72 65 
   5   0   0   0   0   0   0   0   0   6   0   0   0   0   0   0   8   0   0   0   0   0   0   0   0   0   0   0   0   0   0   8 89 86 85 84 82 81 80 79 
  10   0   0   0   0   0   0   0   0   7   0   0   8   0   0   0   0   0   0   0   0   0   0   0   0   0   0   0   0   4   0   8 92 91 90 89 87 84 81 79 
   2   0   0   0   0   0   0   7   0   0   0   0   7   0   0   0   0   0   2   0   6   0   0   0   0   0   0   0   6   0   0   8 94 90 87 85 84 83 80 79 
   7   0   0   0   0   0   0   0   0   0   0   0   0   0   0   0   0   0   0   0   0   0   0   0   0   7   0   0   0   0   0   7 89 88 83 82 81 79 73 
   2   0   6   0   0   0   0   0   0   0   7   5  10   0   0   0   0   0   7   0   0   0   0   0   0   0   0   0   0   0   0   6 86 84 83 80 79 66 
  10   0   0   6   0   0   0   0   0   0   7   0   0  10   0   0   0   0   0   0   0   0   0   0   0   0   0   4   0   0   7   6 89 85 83 81 73 72 
   3   0   0   0   0  10   0   0   0   0   0   0   0   0   0   0   0   0   0   0   0   0   0   0   0   0   0   0   0   0   0   6 88 87 86 85 81 76 
   8   0   0   0   0   0   6   0   0   0   0   0   0   0   0   0   0   0   0   0   0   0   0   8   0   0   0   0   0   9   0   6 86 85 83 82 79 75 
   7   5   0   0   0   0   0   0   0   0   0   0   0   0   0   0   0   0   0   0   0   0   0   0   0   0   0   0   0   0   0   6 91 88 83 81 80 79 
   4   0   0  10   0   0   0   0   0   0   0   0   4   0   0   0   3   0   0   0   0   0   0   0   0   0   0   5   0   0   0   2 83 61 
   1   0   0   4   0   0   0   0   0   0   0   0   0   0   3   0   0   0   0   0   4   0   0   0   0   0   0   0   0   0   6   2 73 61 
   3   0   0   4   0   0  10   0   0   0   0   0   0   0   0   0   0   0   0   0   0   0   0   0   0   0   0   0   7   0   0   5 88 84 81 80 79 
   7   0   5   0   0   3   0   6   0   0   0   0   0   0   0   0   0   0   0   0   0   0   0   0   0   0   0   8   0   0   0   5 85 84 83 80 79 
   5   0   0   6   0   0   0   0   0   0   0   0   0   6   0   0   0   0   0   0   0   0   0   0   0   5   6   0   7   0   0   4 83 80 79 75 
  10   0   0   0   0   7   0   0   0   0   0   0   0   0   0   0   0   0   0   0   0   0   0   0   0   0   0   0   0   0   0   4 86 81 80 79 
   4   0   0   4   0   0   0   0   0   0   0   0   0   0   0   0   0   0   0   0   0  10   0   0   0   0   7   0   0   0   0   2 88 65 
  10   0   0   0   0   0   0   0   0   0   0   0   0   0   0   0   0   0   0   0   0   0   0   0   0   0   0   0   0   0   0   3 86 84 83 
  10   0   0   0   0   0   0   9   0   0   0   0   0   0   0   3   0   0   0   7   0   0   0   4   0   0   0   0   0   0   0   3 83 82 79 
   9   0   0   0   0   0   0   0   0   0   6   0   0   0   0   0   0   0   3   8   0   4   0   0   0   0   0   0   7   0   0   2 80 79 
   8   0   6   0   0   0   9   0   0   0   0   0   0   0   0   8   4   0   0   0   0   0  10   0   0   0   0   0   5   0   0   2 82 81 
   5   0   0   0   8   9   0   0   6   0   0  10   0   0   3   0   0   0   0   0   0   0   0   0   0   0   0   0   0   0   0   2 90 85 
   6   0   0   9   0   0   0   0   0  10   0   9   0   0   0   0   5   0   0   0   0   0   0   0   0   0   0   0   0   5   4   2 83 79 
   9   0   4   0   0   0   0   0   0   0   0   0   0   6   0   0   0   4   0   0   0   0   6   0   0   0   0   0   0   0   0   2 82 81 
   7   0   0   0   6   0   0   0   0   8   4   0   0   0   0   0   0   0   0   0   4   0   0   0   0   0  10   0   0   0   0   2 87 81 
   7   0   0   0   0   0   0   5   0   0   7   8   7   0  10   0   0   0   0   0   0   3   0   0   0   0   0   0   0   0   0   2 87 80 
   3   0   6   0   0   4   0   0   0   0   0   0   0   0   0   0   0   6   0   0   0   0   0   0   7   0   0   0   0   0   0   1 82 
   6   0   0   0   0   0   0   0   0   0   0   0   0   0   0   0   0   0   7   0   0   0   0   0   5   8   0   0   7   0   0   1 80 
   9   0   0   0   0   0   0   0   0   0   0   0   7   0   0   6   0   0   0   0   0   0   0   0   0   0   0   0   0   0   0   1 85 
   6   0   0   0   0   0   4   0   0   5   0   0   4   5   0   0   0   0   0   0   0   5   0   0   0   0   0   0   0   0   0   1 84 
   9   0   0   0   0   0   0   0   7   0   0   0   6   0   0   0   0   0   0   0   0   0   0   0   0   0   0   0   0   0   0   1 79 
   7   7   0   0   0   3   0   0   6   0   0   0   0   0   0   8   0   0   0   0   0   0   0   7   0   0   0   0   0  10   0   1 86 
   5   0   0   0   0   0   0   0   0   0   0   0   5   0   0   0   0   0   0   8   0   7   6   0   0   0   0   0   0   0   0   1 82 
   6   0   0   0   0   0   0   0   7   0   0   0   8   5   0   0   0   0   0   0   0   0   6   0   0   0   0  10   7   0   0   1 102
   2   0   0   0   0   0   0   8   0   6   0   0   0   0   0   0   0   0   0   0   3   0   0   0   0   0   0   0   0   0   0   1 102
  10   0   0   0   0   0   0   0   0   0   0   0   0   8   0   0   0   0   0   0   6  10   0   0   0   0   0   0   0   0   0   1 102
   5   0   0   0   0   0   0   0   0   0   0   0   0   0   0   0   0   0   0   0   0   0   0   6   0   0   0   5   0   0   0   1 102
   9   0   0   0   0   0   0   0   0   0   0   0   0   5   0   0   0   0   0   0   0   7   0   0   9   0   0   0   7   0   0   1 102
   3   0   0   0   0   5   0   0   0   0   0   0   0   0   0   0   0   0   0   8   0   0   0   0   0  10   0   7   6   0   3   1 102
   2   0   0   0   0   0  10   0   0   0   0   0   0   7   0   0   0   0   0   0   0   8   0   0   0   0   0   0   0   0   0   1 102
   2   0   4   7   0   7   0   8   0   0   0   6   0   0   8   0  10   0   0   0   0   0   0   0   0   0   2   0   0  10   0   1 102
   3   0   0   0   0   0   0   0   0   0   0   0   5   0   0   0   0   0   0   0   0   0   0  10   0  10   0   6   0   0  10   1 102
   7   0   0   0   0   0   0   0   0   0   0   0   0   0   0   0   0   0   0   0   0   0   0   0   0   3   0   6   0   4   0   1 102
   9   0   0   0   0   0   0   0   0   0   0   0   0   0   0   0   0   0   7   0   7   0   0   0   0   6   0   0   0   0   0   1 102
   4   9   0   0   0   0   0   0   0   4   0   7   0   0   0   0   0   8   0   0   0   0   0   0   0   0   6   0   0   0   0   1 102
  10   0   0   0   0   0   0   0   7   0   8   0   0   0   0   0   0  10   0   0   0   0   0   0   0   0   0   0   4   0   5   1 102
   8   0   0   0   0   0   0   0   0   0   0   0   0   0   0   0   0   0   8   0   0   5   0   0   0   0   0   0   4   0   0   1 102
   8   0  10   0   0   0   0   0   0   0   0   0   7   0   0   0   0   0   7   0   0   0   0   0   0   0   0   0   0   0   0   1 102
   5   0   0   0   0   0   0   0   0   0   0   0   0   3   0   0   0   0   0   6  10   0   0   0   0   0   0   0   0   0   0   1 102
  10   0   6   0   0   0   0   0   0   0   0   6   0   0   0   0   0   0   0   0   0   0   0   0   0   0   0   8   6   0   0   1 102
   9   0   0   0   0   0   0   0   0   0   0   0  10   0   0   0   0   0   4   0   0   5   0   0   0   0   0   0   0   0   0   1 102
  10   0   0   0   7   0   0   7   0   7   0   0   0   0   8   0   0   0   6   0   9   0   0   6   0   0   0   0   5  10   8   1 102
   6   4   0   0   9   9   0   0   0   0   0   0   0   0   0   0   0   0   5   0   0   0   0   0   0   0   0   0   0   0   5   1 102
   6   0   0  10   0   0   0   0   0   0   0   0   0   0   0   9   0   0   0   0   0   9   0   0   0   5   9   0   0   0   0   1 102
   6   0   0   0   0   0   0   0   0   0   0   0  10   0   0   0   0   0   0   0   0   0   0   0   9   0   4   0   5   0   7   1 102
   2   0   0   0   0   0   0   0   0   0   0   0   0   9   0   0  10   5   0   0   0   9   0   0   0   0   6   0   0   0   7   1 102
   0   0   0   0   0   0   0   0   0   0   0   0   0   0   0   0   0   0   0   0   0   0   0   0   0   0   0   0   0   0   0   0 
